p cnf 19 7
e 1 0
a 2 3 0
e 4 5 0
a 6 0
e 7 0
a 8 9 0
e 10 0
a 11 12 0
e 13 14 15 0
a 16 0
e 17 18 0
a 19 0
5 -4 -17 -19 3 0
-18 -4 0
-5 -11 0
5 14 -7 0
-4 -11 -2 9 -14 0
-6 8 11 16 12 0
-6 10 13 -1 12 0
